p wcnf 156 312 313 
1 -153 130 0 
1 -66 -128 0 
1 -8 3 0 
1 20 2 0 
1 -98 7 0 
1 55 31 0 
1 57 -49 0 
1 74 -67 0 
1 -154 37 0 
1 40 146 0 
1 -35 155 0 
1 -138 93 0 
1 -36 58 0 
1 -131 141 0 
1 -145 -120 0 
1 52 -39 0 
1 -69 -145 0 
1 -24 -155 0 
1 -101 67 0 
1 -95 143 0 
1 -117 69 0 
1 150 -32 0 
1 -25 -94 0 
1 78 -134 0 
1 -18 40 0 
1 -18 97 0 
1 -62 86 0 
1 114 -153 0 
1 -55 -123 0 
1 -74 4 0 
1 122 114 0 
1 41 -56 0 
1 155 -49 0 
1 -57 -118 0 
1 9 -131 0 
1 136 -117 0 
1 70 -102 0 
1 81 -102 0 
1 35 90 0 
1 -23 -17 0 
1 -143 -59 0 
1 -26 -58 0 
1 -139 -73 0 
1 -137 143 0 
1 92 -143 0 
1 132 154 0 
1 -117 48 0 
1 152 145 0 
1 -38 132 0 
1 -3 51 0 
1 137 37 0 
1 -128 -61 0 
1 96 147 0 
1 131 149 0 
1 -151 -102 0 
1 -149 -95 0 
1 56 44 0 
1 105 29 0 
1 -108 132 0 
1 -98 118 0 
1 -139 72 0 
1 -136 125 0 
1 -116 154 0 
1 60 -74 0 
1 -104 87 0 
1 -105 -139 0 
1 45 -89 0 
1 138 71 0 
1 38 52 0 
1 -90 -3 0 
1 -107 -32 0 
1 98 -104 0 
1 -48 -25 0 
1 -91 -25 0 
1 127 147 0 
1 33 94 0 
1 41 -90 0 
1 -31 18 0 
1 33 -58 0 
1 -82 -63 0 
1 -117 146 0 
1 -68 26 0 
1 -81 -68 0 
1 61 14 0 
1 143 -62 0 
1 140 -48 0 
1 40 23 0 
1 56 95 0 
1 -138 154 0 
1 29 -99 0 
1 111 50 0 
1 128 94 0 
1 -111 -33 0 
1 119 -40 0 
1 -73 138 0 
1 81 -67 0 
1 117 -149 0 
1 -83 -5 0 
1 -156 -13 0 
1 12 53 0 
1 55 72 0 
1 58 85 0 
1 -23 -21 0 
1 105 44 0 
1 31 123 0 
1 31 -28 0 
1 -23 -80 0 
1 94 92 0 
1 70 10 0 
1 45 138 0 
1 -140 -132 0 
1 -62 58 0 
1 156 -12 0 
1 -145 -117 0 
1 -103 -99 0 
1 96 13 0 
1 -120 -59 0 
1 32 96 0 
1 -152 18 0 
1 3 114 0 
1 8 76 0 
1 153 -140 0 
1 38 -55 0 
1 -106 -43 0 
1 104 68 0 
1 -89 78 0 
1 -137 -94 0 
1 -75 6 0 
1 -67 43 0 
1 -79 36 0 
1 62 -112 0 
1 113 -1 0 
1 -79 42 0 
1 121 -44 0 
1 148 -15 0 
1 -154 127 0 
1 -49 -109 0 
1 -77 44 0 
1 147 -156 0 
1 -150 25 0 
1 -79 51 0 
1 145 28 0 
1 -60 -68 0 
1 -18 85 0 
1 65 75 0 
1 -28 -140 0 
1 -135 84 0 
1 34 -17 0 
1 123 60 0 
1 -74 94 0 
1 153 -1 0 
1 152 -76 0 
1 -60 -23 0 
1 27 59 0 
1 61 85 0 
1 86 59 0 
1 -59 -146 0 
1 -74 42 0 
1 112 56 0 
1 -130 -11 0 
1 91 132 0 
1 142 98 0 
1 -3 -125 0 
1 83 -6 0 
1 122 116 0 
1 -150 -45 0 
1 63 127 0 
1 100 -97 0 
1 -125 -51 0 
1 -49 154 0 
1 148 -68 0 
1 -18 -112 0 
1 -48 -57 0 
1 -26 -103 0 
1 41 -149 0 
1 -144 6 0 
1 148 -109 0 
1 -60 -153 0 
1 27 122 0 
1 -33 -45 0 
1 102 118 0 
1 34 104 0 
1 -103 131 0 
1 -14 -134 0 
1 151 5 0 
1 -123 108 0 
1 47 -25 0 
1 97 146 0 
1 -12 114 0 
1 145 -137 0 
1 -57 -74 0 
1 103 -34 0 
1 -1 -46 0 
1 124 113 0 
1 -143 -86 0 
1 24 17 0 
1 4 13 0 
1 -108 -141 0 
1 -16 -116 0 
1 -9 -15 0 
1 -13 120 0 
1 -28 18 0 
1 90 -41 0 
1 -76 5 0 
1 8 155 0 
1 -40 -137 0 
1 39 -45 0 
1 -142 -104 0 
1 -81 107 0 
1 -41 -6 0 
1 136 -23 0 
1 -28 -115 0 
1 98 -143 0 
1 119 -126 0 
1 129 -30 0 
1 -124 139 0 
1 56 156 0 
1 -46 -57 0 
1 -18 59 0 
1 -11 -110 0 
1 39 -106 0 
1 88 -70 0 
1 -33 -38 0 
1 71 117 0 
1 -105 -31 0 
1 119 26 0 
1 112 -29 0 
1 54 126 0 
1 61 36 0 
1 149 -78 0 
1 118 -6 0 
1 -104 13 0 
1 83 -135 0 
1 -123 -36 0 
1 -140 -63 0 
1 -132 -75 0 
1 49 -105 0 
1 -16 32 0 
1 -93 -106 0 
1 -122 -138 0 
1 -83 95 0 
1 -67 -1 0 
1 -12 -93 0 
1 39 -52 0 
1 132 -59 0 
1 -60 -66 0 
1 63 -50 0 
1 -127 124 0 
1 42 124 0 
1 29 103 0 
1 -60 124 0 
1 -110 5 0 
1 66 15 0 
1 71 57 0 
1 114 -32 0 
1 57 139 0 
1 -81 -138 0 
1 -145 -90 0 
1 25 -133 0 
1 154 -91 0 
1 119 156 0 
1 84 37 0 
1 -16 -3 0 
1 -91 85 0 
1 -52 -16 0 
1 44 6 0 
1 -4 98 0 
1 -121 49 0 
1 -144 82 0 
1 -103 -56 0 
1 -36 14 0 
1 -114 -2 0 
1 8 95 0 
1 -150 63 0 
1 102 150 0 
1 106 7 0 
1 64 3 0 
1 -124 -68 0 
1 -131 19 0 
1 149 -31 0 
1 -145 -127 0 
1 38 -77 0 
1 -102 -6 0 
1 43 5 0 
1 -28 123 0 
1 12 -97 0 
1 -94 9 0 
1 123 74 0 
1 -14 52 0 
1 59 113 0 
1 92 59 0 
1 63 -96 0 
1 -108 60 0 
1 27 125 0 
1 -33 -147 0 
1 -86 -113 0 
1 138 -84 0 
1 132 53 0 
1 -98 53 0 
1 17 -66 0 
1 8 -94 0 
1 -88 -98 0 
1 -140 -56 0 
1 106 -22 0 
1 -14 20 0 
1 97 -74 0 
1 92 48 0 
1 24 -44 0 
1 45 -30 0 
1 -128 -123 0 
1 -62 -150 0 
1 -81 -73 0 
